
  32    1
  10

   0   0   5 2 4 5 6 7 
   2   1   2 10 3 
   4   4   2 12 8 
   4   3   2 12 8 
  10   2   2 12 8 
   8   3   2 12 9 
   9   2   2 12 8 
   3   6   2 13 11 
   8   3   2 13 11 
   8   5   1 11 
   2   2   4 18 16 15 14 
   6   4   3 20 15 14 
   8   3   3 21 20 18 
   6   4   2 22 17 
  10   4   4 28 24 22 21 
   3   4   5 31 28 26 24 22 
   4   4   3 26 24 19 
   5   7   3 26 22 19 
   9   5   4 31 28 25 23 
   5   4   2 24 22 
   1   6   3 31 30 26 
   9   4   2 25 23 
   8   2   2 30 29 
   5   4   2 30 29 
   6   5   1 27 
   1   7   1 27 
   2   3   1 29 
   3   9   1 29 
   3   2   1 32
   3   2   1 32
   1   6   1 32
   0   0   0 
